c Sudoku solution
p cnf 729 0
168 0
196 0
225 0
243 0
281 0
337 0
341 0
366 0
392 0
479 0
494 0
519 0
521 0
533 0
582 0
626 0
635 0
614 0
653 0
483 0
576 0
595 0
697 0
671 0
688 0
723 0
758 0
548 0
831 0
111 0
313 0
173 0
845 0
465 0
451 0
446 0
878 0
298 0
328 0
915 0
938 0
418 0
427 0
432 0
984 0
956 0
993 0
791 0
899 0
961 0
863 0
355 0
185 0
374 0
277 0
389 0
775 0
972 0
929 0
947 0
157 0
554 0
567 0
852 0
712 0
824 0
736 0
817 0
787 0
886 0
216 0
122 0
642 0
669 0
259 0
262 0
144 0
139 0
234 0
749 0
764 0
